<number of tasks>
50

<cycle time>
1000

<order strength>
0.2


<task times>
1 255
2 521
3 549
4 480
5 497
6 712
7 685
8 459
9 631
10 438
11 570
12 643
13 496
14 400
15 443
16 494
17 434
18 557
19 472
20 490
21 404
22 378
23 504
24 497
25 384
26 483
27 565
28 540
29 435
30 524
31 566
32 507
33 589
34 509
35 356
36 385
37 234
38 639
39 407
40 459
41 508
42 314
43 487
44 373
45 427
46 536
47 449
48 695
49 582
50 384

<precedence relations>
1,7
2,8
3,10
4,9
6,11
7,12
8,12
10,14
11,13
12,15
13,16
13,19
13,20
13,21
14,17
14,18
14,22
15,23
16,25
17,24
17,26
17,28
18,27
18,29
19,29
20,45
22,50
23,30
24,31
25,32
26,33
27,35
28,34
28,38
29,36
29,37
29,39
30,43
31,43
32,41
33,44
34,42
35,43
36,40
38,45
38,46
39,47
40,48
41,49
42,49
45,50

<end>
